
%FILE DATA:	Soccer Computational Problem for MiniZinc Models	%
%AUTHOR:	Jack Wall	%
%CONTACT:  	116397063@umail.ucc.ie			%
%LAST UPDATE:	02/14/2020, 08:50:15						%
%DESCRIPTION: 	32 games played with 24 games left				%


n=8; %number of teams

%Games to play
games=[|7,8|2,4|6,5|3,1|5,8|8,3|2,5|5,1|3,7|1,4|5,6|3,8|5,3|4,5|4,8|8,2|7,6|5,4|7,3|4,3|8,5|2,1|4,2|3,5|];

%Initial points
iPoints=[13,12,10,6,8,9,16,14];

%POSITION CONSTRAINTS
% [|teamID, operator, position|...]
% operators index:
%  1 for =  operator
%  2 for >  operator
%  3 for >= operator
%  4 for <  operator
%  5 for <= operator
positionConstraints=[|3,3,1|5,3,2|2,1,3|8,1,4|7,5,5|];